dimension = 4;
%maxmin_values = [30, 98, 98];
maxmin_values = [];
values=[|   98, 30, 98, 98 |
            98, 30, 98, 99 |
            42, 37, 80, 12 |
            20, 90, 60, 30 |
            99, 30, 30, 99 |
             1,  1,  1,  1|];